(set-info :smt-lib-version 2.6)
(set-logic UF)
(set-info :source |Benchmarks from the paper: "Extending Sledgehammer with SMT Solvers" by Jasmin Blanchette, Sascha Bohme, and Lawrence C. Paulson, CADE 2011.  Translated to SMT2 by Andrew Reynolds and Morgan Deters.|)
(set-info :category "industrial")
(set-info :status unsat)
(declare-sort S1 0)
(declare-sort S2 0)
(declare-sort S3 0)
(declare-sort S4 0)
(declare-sort S5 0)
(declare-sort S6 0)
(declare-sort S7 0)
(declare-sort S8 0)
(declare-sort S9 0)
(declare-sort S10 0)
(declare-sort S11 0)
(declare-sort S12 0)
(declare-sort S13 0)
(declare-sort S14 0)
(declare-sort S15 0)
(declare-sort S16 0)
(declare-fun f1 () S1)
(declare-fun f2 () S1)
(declare-fun f3 (S2 S3) S3)
(declare-fun f4 (S4 S3) S2)
(declare-fun f5 () S4)
(declare-fun f6 () S3)
(declare-fun f7 (S5 S6) S3)
(declare-fun f8 () S5)
(declare-fun f9 () S6)
(declare-fun f10 () S3)
(declare-fun f11 (S7 S3) S1)
(declare-fun f12 (S8 S3) S7)
(declare-fun f13 () S8)
(declare-fun f14 () S3)
(declare-fun f15 () S3)
(declare-fun f16 () S6)
(declare-fun f17 (S9 S6) S6)
(declare-fun f18 () S9)
(declare-fun f19 (S10 S6) S9)
(declare-fun f20 () S10)
(declare-fun f21 () S6)
(declare-fun f22 (S11 S6) S1)
(declare-fun f23 (S12 S6) S11)
(declare-fun f24 () S12)
(declare-fun f25 (S13 S7) S1)
(declare-fun f26 (S14 S3) S13)
(declare-fun f27 () S14)
(declare-fun f28 () S8)
(declare-fun f29 () S6)
(declare-fun f30 () S7)
(declare-fun f31 (S15 S3) S6)
(declare-fun f32 () S15)
(declare-fun f33 () S10)
(declare-fun f34 () S12)
(declare-fun f35 (S16 S3) S9)
(declare-fun f36 () S16)
(declare-fun f37 () S4)
(assert (not (= f1 f2)))
(assert (not (not (= (f3 (f4 f5 f6) (f7 f8 f9)) f10))))
(assert (= (f11 (f12 f13 f10) (f3 (f4 f5 f6) (f7 f8 f9))) f1))
(assert (= (f11 (f12 f13 f10) (f3 (f4 f5 f6) (f7 f8 f9))) f1))
(assert (= (f11 (f12 f13 f6) f14) f1))
(assert (= (f11 (f12 f13 f15) (f3 (f4 f5 f6) (f7 f8 f9))) f1))
(assert (forall ((?v0 S3)) (not (= (f3 (f4 f5 (f3 (f4 f5 f6) ?v0)) ?v0) f10))))
(assert (forall ((?v0 S3)) (= (f3 (f4 f5 f10) ?v0) ?v0)))
(assert (forall ((?v0 S3)) (= (f3 (f4 f5 ?v0) f10) ?v0)))
(assert (= (f7 f8 f16) f6))
(assert (= (f17 f18 f16) f16))
(assert (not (= f10 f6)))
(assert (forall ((?v0 S6) (?v1 S6)) (= (f7 f8 (f17 (f19 f20 ?v0) ?v1)) (f3 (f4 f5 (f7 f8 ?v0)) (f7 f8 ?v1)))))
(assert (forall ((?v0 S6) (?v1 S6)) (= (f17 f18 (f17 (f19 f20 ?v0) ?v1)) (f17 (f19 f20 (f17 f18 ?v0)) (f17 f18 ?v1)))))
(assert (= (f7 f8 f21) f10))
(assert (= (f17 f18 f21) f21))
(assert (not (= f6 f10)))
(assert (not (= f16 f21)))
(assert (not (= f10 f6)))
(assert (not (= f21 f16)))
(assert (forall ((?v0 S3)) (= (f3 (f4 f5 f10) ?v0) ?v0)))
(assert (forall ((?v0 S6)) (= (f17 (f19 f20 f21) ?v0) ?v0)))
(assert (forall ((?v0 S3)) (= (f3 (f4 f5 f10) ?v0) ?v0)))
(assert (forall ((?v0 S6)) (= (f17 (f19 f20 f21) ?v0) ?v0)))
(assert (= (f22 (f23 f24 f21) f9) f1))
(assert (forall ((?v0 S6)) (= (f17 (f19 f20 f21) ?v0) ?v0)))
(assert (forall ((?v0 S6)) (= (f17 (f19 f20 ?v0) f21) ?v0)))
(assert (forall ((?v0 S6) (?v1 S6)) (= (f17 (f19 f20 ?v0) ?v1) (f17 (f19 f20 ?v1) ?v0))))
(assert (forall ((?v0 S3) (?v1 S3)) (or (= (f11 (f12 f13 ?v0) ?v1) f1) (or (= ?v0 ?v1) (= (f11 (f12 f13 ?v1) ?v0) f1)))))
(assert (forall ((?v0 S6) (?v1 S6) (?v2 S6)) (let ((?v_1 (f19 f20 ?v0)) (?v_0 (f19 f20 ?v1))) (= (f17 ?v_1 (f17 ?v_0 ?v2)) (f17 ?v_0 (f17 ?v_1 ?v2))))))
(assert (forall ((?v0 S6) (?v1 S6)) (= (= (f17 (f19 f20 ?v0) ?v1) f21) (and (= ?v0 f21) (= ?v1 f21)))))
(assert (forall ((?v0 S6) (?v1 S6) (?v2 S6)) (let ((?v_0 (f19 f20 ?v0))) (= (f17 (f19 f20 (f17 ?v_0 ?v1)) ?v2) (f17 ?v_0 (f17 (f19 f20 ?v1) ?v2))))))
(assert (forall ((?v0 S6) (?v1 S6) (?v2 S6)) (let ((?v_0 (f19 f20 ?v0))) (= (= (f17 ?v_0 ?v1) (f17 ?v_0 ?v2)) (= ?v1 ?v2)))))
(assert (forall ((?v0 S6) (?v1 S6) (?v2 S6)) (= (= (f17 (f19 f20 ?v0) ?v1) (f17 (f19 f20 ?v2) ?v1)) (= ?v0 ?v2))))
(assert (forall ((?v0 S3) (?v1 S3)) (=> (not (= ?v0 ?v1)) (=> (=> (= (f11 (f12 f13 ?v0) ?v1) f1) false) (=> (=> (= (f11 (f12 f13 ?v1) ?v0) f1) false) false)))))
(assert (forall ((?v0 S6) (?v1 S6)) (=> (= (f17 (f19 f20 ?v0) ?v1) ?v0) (= ?v1 f21))))
(assert (forall ((?v0 S6) (?v1 S6)) (=> (= (f11 (f12 f13 (f7 f8 ?v0)) (f7 f8 ?v1)) f1) (= (f22 (f23 f24 ?v0) ?v1) f1))))
(assert (forall ((?v0 S6) (?v1 S6)) (=> (= (f22 (f23 f24 (f17 f18 ?v0)) (f17 f18 ?v1)) f1) (= (f22 (f23 f24 ?v0) ?v1) f1))))
(assert (forall ((?v0 S6) (?v1 S6)) (=> (= (f22 (f23 f24 ?v0) ?v1) f1) (= (f11 (f12 f13 (f7 f8 ?v0)) (f7 f8 ?v1)) f1))))
(assert (forall ((?v0 S6) (?v1 S6)) (=> (= (f22 (f23 f24 ?v0) ?v1) f1) (= (f22 (f23 f24 (f17 f18 ?v0)) (f17 f18 ?v1)) f1))))
(assert (forall ((?v0 S6) (?v1 S6)) (= (= (f11 (f12 f13 (f7 f8 ?v0)) (f7 f8 ?v1)) f1) (= (f22 (f23 f24 ?v0) ?v1) f1))))
(assert (forall ((?v0 S6) (?v1 S6)) (= (= (f22 (f23 f24 (f17 f18 ?v0)) (f17 f18 ?v1)) f1) (= (f22 (f23 f24 ?v0) ?v1) f1))))
(assert (forall ((?v0 S6)) (= (= (f11 (f12 f13 f10) (f7 f8 ?v0)) f1) (= (f22 (f23 f24 f21) ?v0) f1))))
(assert (forall ((?v0 S6)) (let ((?v_0 (f23 f24 f21))) (= (= (f22 ?v_0 (f17 f18 ?v0)) f1) (= (f22 ?v_0 ?v0) f1)))))
(assert (forall ((?v0 S6) (?v1 S6) (?v2 S3)) (= (f3 (f4 f5 (f7 f8 ?v0)) (f3 (f4 f5 (f7 f8 ?v1)) ?v2)) (f3 (f4 f5 (f7 f8 (f17 (f19 f20 ?v0) ?v1))) ?v2))))
(assert (forall ((?v0 S6) (?v1 S6)) (= (f3 (f4 f5 (f7 f8 ?v0)) (f7 f8 ?v1)) (f7 f8 (f17 (f19 f20 ?v0) ?v1)))))
(assert (= (f7 f8 f16) f6))
(assert (forall ((?v0 S6)) (= (= (f7 f8 ?v0) f10) (= ?v0 f21))))
(assert (= (f7 f8 f21) f10))
(assert (forall ((?v0 S3) (?v1 S3) (?v2 S3)) (let ((?v_0 (f4 f5 ?v0))) (=> (= (f11 (f12 f13 (f3 ?v_0 ?v1)) (f3 ?v_0 ?v2)) f1) (= (f11 (f12 f13 ?v1) ?v2) f1)))))
(assert (forall ((?v0 S6) (?v1 S6) (?v2 S6)) (let ((?v_0 (f19 f20 ?v0))) (=> (= (f22 (f23 f24 (f17 ?v_0 ?v1)) (f17 ?v_0 ?v2)) f1) (= (f22 (f23 f24 ?v1) ?v2) f1)))))
(assert (forall ((?v0 S3) (?v1 S3) (?v2 S3)) (=> (= (f11 (f12 f13 (f3 (f4 f5 ?v0) ?v1)) (f3 (f4 f5 ?v2) ?v1)) f1) (= (f11 (f12 f13 ?v0) ?v2) f1))))
(assert (forall ((?v0 S6) (?v1 S6) (?v2 S6)) (=> (= (f22 (f23 f24 (f17 (f19 f20 ?v0) ?v1)) (f17 (f19 f20 ?v2) ?v1)) f1) (= (f22 (f23 f24 ?v0) ?v2) f1))))
(assert (forall ((?v0 S3) (?v1 S3) (?v2 S3) (?v3 S3)) (=> (= (f11 (f12 f13 ?v0) ?v1) f1) (=> (= (f11 (f12 f13 ?v2) ?v3) f1) (= (f11 (f12 f13 (f3 (f4 f5 ?v0) ?v2)) (f3 (f4 f5 ?v1) ?v3)) f1)))))
(assert (forall ((?v0 S6) (?v1 S6) (?v2 S6) (?v3 S6)) (=> (= (f22 (f23 f24 ?v0) ?v1) f1) (=> (= (f22 (f23 f24 ?v2) ?v3) f1) (= (f22 (f23 f24 (f17 (f19 f20 ?v0) ?v2)) (f17 (f19 f20 ?v1) ?v3)) f1)))))
(assert (forall ((?v0 S3) (?v1 S3) (?v2 S3)) (let ((?v_0 (f4 f5 ?v2))) (=> (= (f11 (f12 f13 ?v0) ?v1) f1) (= (f11 (f12 f13 (f3 ?v_0 ?v0)) (f3 ?v_0 ?v1)) f1)))))
(assert (forall ((?v0 S6) (?v1 S6) (?v2 S6)) (let ((?v_0 (f19 f20 ?v2))) (=> (= (f22 (f23 f24 ?v0) ?v1) f1) (= (f22 (f23 f24 (f17 ?v_0 ?v0)) (f17 ?v_0 ?v1)) f1)))))
(assert (forall ((?v0 S3) (?v1 S3) (?v2 S3)) (=> (= (f11 (f12 f13 ?v0) ?v1) f1) (= (f11 (f12 f13 (f3 (f4 f5 ?v0) ?v2)) (f3 (f4 f5 ?v1) ?v2)) f1))))
(assert (forall ((?v0 S6) (?v1 S6) (?v2 S6)) (=> (= (f22 (f23 f24 ?v0) ?v1) f1) (= (f22 (f23 f24 (f17 (f19 f20 ?v0) ?v2)) (f17 (f19 f20 ?v1) ?v2)) f1))))
(assert (forall ((?v0 S3) (?v1 S3) (?v2 S3)) (let ((?v_0 (f4 f5 ?v0))) (= (= (f11 (f12 f13 (f3 ?v_0 ?v1)) (f3 ?v_0 ?v2)) f1) (= (f11 (f12 f13 ?v1) ?v2) f1)))))
(assert (forall ((?v0 S6) (?v1 S6) (?v2 S6)) (let ((?v_0 (f19 f20 ?v0))) (= (= (f22 (f23 f24 (f17 ?v_0 ?v1)) (f17 ?v_0 ?v2)) f1) (= (f22 (f23 f24 ?v1) ?v2) f1)))))
(assert (forall ((?v0 S3) (?v1 S3) (?v2 S3)) (= (= (f11 (f12 f13 (f3 (f4 f5 ?v0) ?v1)) (f3 (f4 f5 ?v2) ?v1)) f1) (= (f11 (f12 f13 ?v0) ?v2) f1))))
(assert (forall ((?v0 S6) (?v1 S6) (?v2 S6)) (= (= (f22 (f23 f24 (f17 (f19 f20 ?v0) ?v1)) (f17 (f19 f20 ?v2) ?v1)) f1) (= (f22 (f23 f24 ?v0) ?v2) f1))))
(assert (forall ((?v0 S3) (?v1 S3) (?v2 S3)) (=> (= (f11 (f12 f13 ?v0) ?v1) f1) (= (f11 (f12 f13 (f3 (f4 f5 ?v0) ?v2)) (f3 (f4 f5 ?v1) ?v2)) f1))))
(assert (forall ((?v0 S3)) (= (= f10 ?v0) (= ?v0 f10))))
(assert (forall ((?v0 S6)) (= (= f21 ?v0) (= ?v0 f21))))
(assert (forall ((?v0 S3) (?v1 S3) (?v2 S3)) (=> (= (f3 (f4 f5 ?v0) ?v1) (f3 (f4 f5 ?v2) ?v1)) (= ?v0 ?v2))))
(assert (forall ((?v0 S6) (?v1 S6) (?v2 S6)) (=> (= (f17 (f19 f20 ?v0) ?v1) (f17 (f19 f20 ?v2) ?v1)) (= ?v0 ?v2))))
(assert (forall ((?v0 S3) (?v1 S3) (?v2 S3)) (let ((?v_0 (f4 f5 ?v0))) (=> (= (f3 ?v_0 ?v1) (f3 ?v_0 ?v2)) (= ?v1 ?v2)))))
(assert (forall ((?v0 S6) (?v1 S6) (?v2 S6)) (let ((?v_0 (f19 f20 ?v0))) (=> (= (f17 ?v_0 ?v1) (f17 ?v_0 ?v2)) (= ?v1 ?v2)))))
(assert (forall ((?v0 S3) (?v1 S3) (?v2 S3)) (let ((?v_0 (f4 f5 ?v0))) (=> (= (f3 ?v_0 ?v1) (f3 ?v_0 ?v2)) (= ?v1 ?v2)))))
(assert (forall ((?v0 S6) (?v1 S6) (?v2 S6)) (let ((?v_0 (f19 f20 ?v0))) (=> (= (f17 ?v_0 ?v1) (f17 ?v_0 ?v2)) (= ?v1 ?v2)))))
(assert (forall ((?v0 S3) (?v1 S3) (?v2 S3) (?v3 S3)) (let ((?v_0 (f4 f5 ?v0))) (= (f3 (f4 f5 (f3 ?v_0 ?v1)) (f3 (f4 f5 ?v2) ?v3)) (f3 (f4 f5 (f3 ?v_0 ?v2)) (f3 (f4 f5 ?v1) ?v3))))))
(assert (forall ((?v0 S6) (?v1 S6) (?v2 S6) (?v3 S6)) (let ((?v_0 (f19 f20 ?v0))) (= (f17 (f19 f20 (f17 ?v_0 ?v1)) (f17 (f19 f20 ?v2) ?v3)) (f17 (f19 f20 (f17 ?v_0 ?v2)) (f17 (f19 f20 ?v1) ?v3))))))
(assert (forall ((?v0 S3) (?v1 S3) (?v2 S3)) (= (= (f3 (f4 f5 ?v0) ?v1) (f3 (f4 f5 ?v2) ?v1)) (= ?v0 ?v2))))
(assert (forall ((?v0 S6) (?v1 S6) (?v2 S6)) (= (= (f17 (f19 f20 ?v0) ?v1) (f17 (f19 f20 ?v2) ?v1)) (= ?v0 ?v2))))
(assert (forall ((?v0 S3) (?v1 S3) (?v2 S3)) (let ((?v_0 (f4 f5 ?v0))) (= (= (f3 ?v_0 ?v1) (f3 ?v_0 ?v2)) (= ?v1 ?v2)))))
(assert (forall ((?v0 S6) (?v1 S6) (?v2 S6)) (let ((?v_0 (f19 f20 ?v0))) (= (= (f17 ?v_0 ?v1) (f17 ?v_0 ?v2)) (= ?v1 ?v2)))))
(assert (forall ((?v0 S3) (?v1 S3) (?v2 S3)) (let ((?v_0 (f4 f5 ?v0))) (= (f3 (f4 f5 (f3 ?v_0 ?v1)) ?v2) (f3 (f4 f5 (f3 ?v_0 ?v2)) ?v1)))))
(assert (forall ((?v0 S6) (?v1 S6) (?v2 S6)) (let ((?v_0 (f19 f20 ?v0))) (= (f17 (f19 f20 (f17 ?v_0 ?v1)) ?v2) (f17 (f19 f20 (f17 ?v_0 ?v2)) ?v1)))))
(assert (forall ((?v0 S3) (?v1 S3) (?v2 S3)) (let ((?v_0 (f4 f5 ?v0))) (= (f3 (f4 f5 (f3 ?v_0 ?v1)) ?v2) (f3 ?v_0 (f3 (f4 f5 ?v1) ?v2))))))
(assert (forall ((?v0 S6) (?v1 S6) (?v2 S6)) (let ((?v_0 (f19 f20 ?v0))) (= (f17 (f19 f20 (f17 ?v_0 ?v1)) ?v2) (f17 ?v_0 (f17 (f19 f20 ?v1) ?v2))))))
(assert (forall ((?v0 S3) (?v1 S3) (?v2 S3)) (let ((?v_0 (f4 f5 ?v0))) (= (f3 (f4 f5 (f3 ?v_0 ?v1)) ?v2) (f3 ?v_0 (f3 (f4 f5 ?v1) ?v2))))))
(assert (forall ((?v0 S6) (?v1 S6) (?v2 S6)) (let ((?v_0 (f19 f20 ?v0))) (= (f17 (f19 f20 (f17 ?v_0 ?v1)) ?v2) (f17 ?v_0 (f17 (f19 f20 ?v1) ?v2))))))
(assert (forall ((?v0 S3) (?v1 S3) (?v2 S3)) (let ((?v_0 (f4 f5 ?v0))) (= (f3 ?v_0 (f3 (f4 f5 ?v1) ?v2)) (f3 (f4 f5 (f3 ?v_0 ?v1)) ?v2)))))
(assert (forall ((?v0 S6) (?v1 S6) (?v2 S6)) (let ((?v_0 (f19 f20 ?v0))) (= (f17 ?v_0 (f17 (f19 f20 ?v1) ?v2)) (f17 (f19 f20 (f17 ?v_0 ?v1)) ?v2)))))
(assert (forall ((?v0 S3) (?v1 S3) (?v2 S3)) (let ((?v_1 (f4 f5 ?v0)) (?v_0 (f4 f5 ?v1))) (= (f3 ?v_1 (f3 ?v_0 ?v2)) (f3 ?v_0 (f3 ?v_1 ?v2))))))
(assert (forall ((?v0 S6) (?v1 S6) (?v2 S6)) (let ((?v_1 (f19 f20 ?v0)) (?v_0 (f19 f20 ?v1))) (= (f17 ?v_1 (f17 ?v_0 ?v2)) (f17 ?v_0 (f17 ?v_1 ?v2))))))
(assert (forall ((?v0 S3) (?v1 S3)) (= (f3 (f4 f5 ?v0) ?v1) (f3 (f4 f5 ?v1) ?v0))))
(assert (forall ((?v0 S6) (?v1 S6)) (= (f17 (f19 f20 ?v0) ?v1) (f17 (f19 f20 ?v1) ?v0))))
(assert (forall ((?v0 S3)) (= (= f6 ?v0) (= ?v0 f6))))
(assert (forall ((?v0 S6)) (= (= f16 ?v0) (= ?v0 f16))))
(assert (forall ((?v0 S3) (?v1 S3)) (=> (= (f11 (f12 f13 ?v0) f10) f1) (=> (= (f11 (f12 f13 ?v1) f10) f1) (= (f11 (f12 f13 (f3 (f4 f5 ?v0) ?v1)) f10) f1)))))
(assert (forall ((?v0 S6) (?v1 S6)) (=> (= (f22 (f23 f24 ?v0) f21) f1) (=> (= (f22 (f23 f24 ?v1) f21) f1) (= (f22 (f23 f24 (f17 (f19 f20 ?v0) ?v1)) f21) f1)))))
(assert (forall ((?v0 S3) (?v1 S3) (?v2 S3)) (let ((?v_0 (f12 f13 ?v1))) (=> (= (f11 (f12 f13 f10) ?v0) f1) (=> (= (f11 ?v_0 ?v2) f1) (= (f11 ?v_0 (f3 (f4 f5 ?v0) ?v2)) f1))))))
(assert (forall ((?v0 S6) (?v1 S6) (?v2 S6)) (let ((?v_0 (f23 f24 ?v1))) (=> (= (f22 (f23 f24 f21) ?v0) f1) (=> (= (f22 ?v_0 ?v2) f1) (= (f22 ?v_0 (f17 (f19 f20 ?v0) ?v2)) f1))))))
(assert (forall ((?v0 S3) (?v1 S3)) (let ((?v_0 (f12 f13 f10))) (=> (= (f11 ?v_0 ?v0) f1) (=> (= (f11 ?v_0 ?v1) f1) (= (f11 ?v_0 (f3 (f4 f5 ?v0) ?v1)) f1))))))
(assert (forall ((?v0 S6) (?v1 S6)) (let ((?v_0 (f23 f24 f21))) (=> (= (f22 ?v_0 ?v0) f1) (=> (= (f22 ?v_0 ?v1) f1) (= (f22 ?v_0 (f17 (f19 f20 ?v0) ?v1)) f1))))))
(assert (forall ((?v0 S3)) (= (= (f11 (f12 f13 (f3 (f4 f5 ?v0) ?v0)) f10) f1) (= (f11 (f12 f13 ?v0) f10) f1))))
(assert (forall ((?v0 S3)) (= (= (f11 (f12 f13 (f3 (f4 f5 ?v0) ?v0)) f10) f1) (= (f11 (f12 f13 ?v0) f10) f1))))
(assert (forall ((?v0 S3)) (let ((?v_0 (f12 f13 f10))) (= (= (f11 ?v_0 (f3 (f4 f5 ?v0) ?v0)) f1) (= (f11 ?v_0 ?v0) f1)))))
(assert (= (f11 (f12 f13 f10) f6) f1))
(assert (= (f22 (f23 f24 f21) f16) f1))
(assert (not (= (f11 (f12 f13 f6) f10) f1)))
(assert (not (= (f22 (f23 f24 f16) f21) f1)))
(assert (forall ((?v0 S3)) (= (f11 (f12 f13 ?v0) (f3 (f4 f5 ?v0) f6)) f1)))
(assert (forall ((?v0 S6)) (= (f22 (f23 f24 ?v0) (f17 (f19 f20 ?v0) f16)) f1)))
(assert (forall ((?v0 S3) (?v1 S3) (?v2 S3)) (let ((?v_0 (f4 f5 ?v0))) (= (f3 (f4 f5 (f3 ?v_0 ?v1)) ?v2) (f3 ?v_0 (f3 (f4 f5 ?v1) ?v2))))))
(assert (forall ((?v0 S3) (?v1 S3) (?v2 S3)) (let ((?v_1 (f4 f5 ?v0)) (?v_0 (f4 f5 ?v1))) (= (f3 ?v_1 (f3 ?v_0 ?v2)) (f3 ?v_0 (f3 ?v_1 ?v2))))))
(assert (forall ((?v0 S3) (?v1 S3)) (= (f3 (f4 f5 ?v0) ?v1) (f3 (f4 f5 ?v1) ?v0))))
(assert (forall ((?v0 S6) (?v1 S6)) (= (= (f17 f18 ?v0) (f17 f18 ?v1)) (= ?v0 ?v1))))
(assert (forall ((?v0 S6) (?v1 S6)) (= (= (f7 f8 ?v0) (f7 f8 ?v1)) (= ?v0 ?v1))))
(assert (forall ((?v0 S6)) (not (= (f11 (f12 f13 (f7 f8 ?v0)) f10) f1))))
(assert (forall ((?v0 S6)) (not (= (f22 (f23 f24 (f17 f18 ?v0)) f21) f1))))
(assert (forall ((?v0 S6) (?v1 S6)) (= (= (f7 f8 ?v0) (f7 f8 ?v1)) (= ?v0 ?v1))))
(assert (= (f11 (f12 f13 f10) f6) f1))
(assert (forall ((?v0 S3) (?v1 S3)) (let ((?v_0 (f12 f13 ?v0))) (= (= (f11 ?v_0 (f3 (f4 f5 ?v1) f6)) f1) (or (= (f11 ?v_0 ?v1) f1) (= ?v0 ?v1))))))
(assert (forall ((?v0 S6)) (not (= (f11 (f12 f13 (f7 f8 ?v0)) f10) f1))))
(assert (forall ((?v0 S3) (?v1 S7)) (= (= (f25 (f26 f27 ?v0) ?v1) f1) (= (f11 ?v1 ?v0) f1))))
(assert (= (f11 (f12 f13 f10) (f3 (f4 f5 f6) f6)) f1))
(assert (= (f22 (f23 f24 f21) (f17 (f19 f20 f16) f16)) f1))
(assert (forall ((?v0 S3)) (= (= (f11 (f12 f13 (f3 (f4 f5 (f3 (f4 f5 f6) ?v0)) ?v0)) f10) f1) (= (f11 (f12 f13 ?v0) f10) f1))))
(assert (forall ((?v0 S3)) (= (= (f3 (f4 f5 ?v0) ?v0) f10) (= ?v0 f10))))
(assert (forall ((?v0 S3) (?v1 S3)) (= (= ?v0 (f3 (f4 f5 ?v0) ?v1)) (= ?v1 f10))))
(assert (forall ((?v0 S6) (?v1 S6)) (= (= ?v0 (f17 (f19 f20 ?v0) ?v1)) (= ?v1 f21))))
(assert (forall ((?v0 S3)) (= (f3 (f4 f5 ?v0) f10) ?v0)))
(assert (forall ((?v0 S6)) (= (f17 (f19 f20 ?v0) f21) ?v0)))
(assert (forall ((?v0 S3)) (= (f3 (f4 f5 ?v0) f10) ?v0)))
(assert (forall ((?v0 S6)) (= (f17 (f19 f20 ?v0) f21) ?v0)))
(assert (forall ((?v0 S3)) (= (f3 (f4 f5 ?v0) f10) ?v0)))
(assert (forall ((?v0 S6)) (= (f17 (f19 f20 ?v0) f21) ?v0)))
(assert (forall ((?v0 S3)) (= (= f10 (f3 (f4 f5 ?v0) ?v0)) (= ?v0 f10))))
(assert (forall ((?v0 S3)) (= (f3 (f4 f5 f10) ?v0) ?v0)))
(assert (forall ((?v0 S6)) (= (f17 (f19 f20 f21) ?v0) ?v0)))
(assert (forall ((?v0 S3) (?v1 S3) (?v2 S7)) (=> (= (f11 (f12 f13 ?v0) ?v1) f1) (=> (= (f11 ?v2 (f3 (f4 f5 ?v0) f6)) f1) (=> (forall ((?v3 S3)) (=> (= (f11 (f12 f13 ?v0) ?v3) f1) (=> (= (f11 ?v2 ?v3) f1) (= (f11 ?v2 (f3 (f4 f5 ?v3) f6)) f1)))) (= (f11 ?v2 ?v1) f1))))))
(assert (= f6 (f7 f8 f16)))
(assert (forall ((?v0 S6) (?v1 S6)) (= (f3 (f4 f5 (f7 f8 ?v0)) (f7 f8 ?v1)) (f7 f8 (f17 (f19 f20 ?v0) ?v1)))))
(assert (= f10 (f7 f8 f21)))
(assert (= (f11 (f12 f28 f6) f14) f1))
(assert (= (f22 (f23 f24 f21) f29) f1))
(assert (forall ((?v0 S3)) (=> (= (f25 (f26 f27 ?v0) f30) f1) (= (= (f11 (f12 f13 (f3 (f4 f5 (f3 (f4 f5 f6) ?v0)) ?v0)) f10) f1) (= (f11 (f12 f13 ?v0) f10) f1)))))
(assert (forall ((?v0 S3)) (=> (= (f25 (f26 f27 ?v0) f30) f1) (not (= (f3 (f4 f5 (f3 (f4 f5 f6) ?v0)) ?v0) f10)))))
(assert (forall ((?v0 S3)) (=> (= (f11 (f12 f28 f10) ?v0) f1) (= (f11 (f12 f13 f10) (f3 (f4 f5 f6) ?v0)) f1))))
(assert (forall ((?v0 S6)) (= (= (f11 (f12 f13 f10) (f7 f8 ?v0)) f1) (= (f22 (f23 f24 f21) ?v0) f1))))
(assert (forall ((?v0 S11) (?v1 S3)) (= (= (f22 ?v0 (f31 f32 ?v1)) f1) (and (forall ((?v2 S6)) (=> (= ?v1 (f7 f8 ?v2)) (= (f22 ?v0 ?v2) f1))) (=> (= (f11 (f12 f13 ?v1) f10) f1) (= (f22 ?v0 f21) f1))))))
(assert (forall ((?v0 S6)) (=> (= (f22 (f23 f24 ?v0) f21) f1) false)))
(assert (= f29 (f17 (f19 f33 (f31 f32 f14)) f16)))
(assert (forall ((?v0 S6)) (not (= (f22 (f23 f24 ?v0) ?v0) f1))))
(assert (forall ((?v0 S3)) (= (f11 (f12 f28 ?v0) ?v0) f1)))
(assert (forall ((?v0 S11)) (= (exists ((?v1 S6)) (= (f22 ?v0 ?v1) f1)) (exists ((?v1 S3)) (and (= (f11 (f12 f28 f10) ?v1) f1) (= (f22 ?v0 (f31 f32 ?v1)) f1))))))
(assert (forall ((?v0 S11)) (= (forall ((?v1 S6)) (= (f22 ?v0 ?v1) f1)) (forall ((?v1 S3)) (=> (= (f11 (f12 f28 f10) ?v1) f1) (= (f22 ?v0 (f31 f32 ?v1)) f1))))))
(assert (forall ((?v0 S6) (?v1 S6)) (= (not (= ?v0 ?v1)) (or (= (f22 (f23 f24 ?v0) ?v1) f1) (= (f22 (f23 f24 ?v1) ?v0) f1)))))
(assert (forall ((?v0 S3) (?v1 S3)) (or (= (f11 (f12 f28 ?v0) ?v1) f1) (= (f11 (f12 f28 ?v1) ?v0) f1))))
(assert (forall ((?v0 S6) (?v1 S6)) (=> (not (= ?v0 ?v1)) (=> (=> (= (f22 (f23 f24 ?v0) ?v1) f1) false) (=> (=> (= (f22 (f23 f24 ?v1) ?v0) f1) false) false)))))
(assert (forall ((?v0 S3) (?v1 S3)) (let ((?v_0 (f12 f28 f10))) (=> (= (f11 ?v_0 ?v0) f1) (=> (= (f11 ?v_0 ?v1) f1) (= (= (f31 f32 ?v0) (f31 f32 ?v1)) (= ?v0 ?v1)))))))
(assert (forall ((?v0 S3) (?v1 S3)) (let ((?v_0 (f12 f28 f10))) (=> (= (f11 ?v_0 ?v0) f1) (=> (= (f11 ?v_0 ?v1) f1) (= (= (f22 (f23 f24 (f31 f32 ?v0)) (f31 f32 ?v1)) f1) (= (f11 (f12 f13 ?v0) ?v1) f1)))))))
(assert (forall ((?v0 S6)) (=> (= (f22 (f23 f24 ?v0) ?v0) f1) false)))
(assert (forall ((?v0 S6) (?v1 S6)) (=> (= (f22 (f23 f24 ?v0) ?v1) f1) (not (= ?v1 ?v0)))))
(assert (forall ((?v0 S6) (?v1 S6)) (=> (= (f22 (f23 f24 ?v0) ?v1) f1) (not (= ?v0 ?v1)))))
(assert (forall ((?v0 S3) (?v1 S3) (?v2 S3)) (let ((?v_0 (f12 f28 ?v0))) (=> (= (f11 ?v_0 ?v1) f1) (=> (= (f11 (f12 f28 ?v1) ?v2) f1) (= (f11 ?v_0 ?v2) f1))))))
(assert (forall ((?v0 S3) (?v1 S3)) (=> (= (f11 (f12 f28 ?v0) ?v1) f1) (=> (= (f11 (f12 f28 ?v1) ?v0) f1) (= ?v0 ?v1)))))
(assert (forall ((?v0 S6) (?v1 S6) (?v2 S12)) (let ((?v_0 (= (f22 (f23 ?v2 ?v1) ?v0) f1))) (=> (=> (= (f22 (f23 f24 ?v0) ?v1) f1) ?v_0) (=> (=> (= ?v0 ?v1) ?v_0) (=> (=> (= (f22 (f23 f24 ?v1) ?v0) f1) ?v_0) ?v_0))))))
(assert (forall ((?v0 S1) (?v1 S3) (?v2 S3)) (let ((?v_0 (= ?v0 f1))) (= (ite ?v_0 (f31 f32 ?v1) (f31 f32 ?v2)) (f31 f32 (ite ?v_0 ?v1 ?v2))))))
(assert (forall ((?v0 S3) (?v1 S3)) (let ((?v_0 (f12 f28 f10))) (=> (= (f11 ?v_0 ?v0) f1) (=> (= (f11 ?v_0 ?v1) f1) (= (= (f31 f32 ?v0) (f31 f32 ?v1)) (= ?v0 ?v1)))))))
(assert (forall ((?v0 S6) (?v1 S6)) (= (= (f22 (f23 f34 (f17 f18 ?v0)) (f17 f18 ?v1)) f1) (= (f22 (f23 f34 ?v0) ?v1) f1))))
(assert (forall ((?v0 S6) (?v1 S6)) (= (= (f11 (f12 f28 (f7 f8 ?v0)) (f7 f8 ?v1)) f1) (= (f22 (f23 f34 ?v0) ?v1) f1))))
(assert (= (f11 (f12 f28 f10) f10) f1))
(assert (forall ((?v0 S3) (?v1 S3)) (=> (= (f11 (f12 f28 f10) ?v0) f1) (= (= (f22 (f23 f24 (f31 f32 ?v0)) (f31 f32 ?v1)) f1) (= (f11 (f12 f13 ?v0) ?v1) f1)))))
(assert (forall ((?v0 S3) (?v1 S6)) (=> (= (f11 (f12 f28 f10) ?v0) f1) (= (= (f22 (f23 f24 (f31 f32 ?v0)) ?v1) f1) (= (f11 (f12 f13 ?v0) (f7 f8 ?v1)) f1)))))
(assert (forall ((?v0 S3)) (=> (= (f11 (f12 f28 ?v0) f10) f1) (= (f31 f32 ?v0) f21))))
(assert (forall ((?v0 S3)) (= (= (f31 f32 ?v0) f21) (= (f11 (f12 f28 ?v0) f10) f1))))
(assert (forall ((?v0 S3) (?v1 S3)) (=> (= (f11 (f12 f13 f10) ?v0) f1) (= (= (f22 (f23 f24 (f31 f32 ?v1)) (f31 f32 ?v0)) f1) (= (f11 (f12 f13 ?v1) ?v0) f1)))))
(assert (forall ((?v0 S3) (?v1 S3)) (= (= (f22 (f23 f24 (f31 f32 ?v0)) (f31 f32 ?v1)) f1) (and (= (f11 (f12 f13 f10) ?v1) f1) (= (f11 (f12 f13 ?v0) ?v1) f1)))))
(assert (forall ((?v0 S3)) (= (f7 f8 (f31 f32 ?v0)) (ite (= (f11 (f12 f28 f10) ?v0) f1) ?v0 f10))))
(assert (forall ((?v0 S6) (?v1 S3)) (= (= (f7 f8 ?v0) ?v1) (and (= ?v0 (f31 f32 ?v1)) (= (f11 (f12 f28 f10) ?v1) f1)))))
(assert (forall ((?v0 S3)) (=> (= (f11 (f12 f28 f10) ?v0) f1) (= (f7 f8 (f31 f32 ?v0)) ?v0))))
(assert (forall ((?v0 S6) (?v1 S3)) (= (= (f22 (f23 f24 ?v0) (f31 f32 ?v1)) f1) (= (f11 (f12 f13 (f7 f8 ?v0)) ?v1) f1))))
(assert (forall ((?v0 S3) (?v1 S3)) (let ((?v_0 (f12 f28 f10))) (=> (= (f11 ?v_0 ?v0) f1) (=> (= (f11 ?v_0 ?v1) f1) (= (f17 (f19 f20 (f31 f32 ?v0)) (f31 f32 ?v1)) (f31 f32 (f3 (f4 f5 ?v0) ?v1))))))))
(assert (forall ((?v0 S6)) (= (f31 f32 (f7 f8 ?v0)) ?v0)))
(assert (forall ((?v0 S3) (?v1 S3) (?v2 S3)) (= (= (f11 (f12 f28 (f3 (f4 f5 ?v0) ?v1)) (f3 (f4 f5 ?v2) ?v1)) f1) (= (f11 (f12 f28 ?v0) ?v2) f1))))
(assert (forall ((?v0 S6) (?v1 S6) (?v2 S6)) (= (= (f22 (f23 f34 (f17 (f19 f20 ?v0) ?v1)) (f17 (f19 f20 ?v2) ?v1)) f1) (= (f22 (f23 f34 ?v0) ?v2) f1))))
(assert (forall ((?v0 S3) (?v1 S3) (?v2 S3)) (let ((?v_0 (f4 f5 ?v0))) (= (= (f11 (f12 f28 (f3 ?v_0 ?v1)) (f3 ?v_0 ?v2)) f1) (= (f11 (f12 f28 ?v1) ?v2) f1)))))
(assert (forall ((?v0 S6) (?v1 S6) (?v2 S6)) (let ((?v_0 (f19 f20 ?v0))) (= (= (f22 (f23 f34 (f17 ?v_0 ?v1)) (f17 ?v_0 ?v2)) f1) (= (f22 (f23 f34 ?v1) ?v2) f1)))))
(assert (forall ((?v0 S3) (?v1 S3) (?v2 S3)) (=> (= (f11 (f12 f28 ?v0) ?v1) f1) (= (f11 (f12 f28 (f3 (f4 f5 ?v0) ?v2)) (f3 (f4 f5 ?v1) ?v2)) f1))))
(assert (forall ((?v0 S6) (?v1 S6) (?v2 S6)) (=> (= (f22 (f23 f34 ?v0) ?v1) f1) (= (f22 (f23 f34 (f17 (f19 f20 ?v0) ?v2)) (f17 (f19 f20 ?v1) ?v2)) f1))))
(assert (forall ((?v0 S3) (?v1 S3) (?v2 S3)) (let ((?v_0 (f4 f5 ?v2))) (=> (= (f11 (f12 f28 ?v0) ?v1) f1) (= (f11 (f12 f28 (f3 ?v_0 ?v0)) (f3 ?v_0 ?v1)) f1)))))
(assert (forall ((?v0 S6) (?v1 S6) (?v2 S6)) (let ((?v_0 (f19 f20 ?v2))) (=> (= (f22 (f23 f34 ?v0) ?v1) f1) (= (f22 (f23 f34 (f17 ?v_0 ?v0)) (f17 ?v_0 ?v1)) f1)))))
(assert (forall ((?v0 S3) (?v1 S3) (?v2 S3) (?v3 S3)) (=> (= (f11 (f12 f28 ?v0) ?v1) f1) (=> (= (f11 (f12 f28 ?v2) ?v3) f1) (= (f11 (f12 f28 (f3 (f4 f5 ?v0) ?v2)) (f3 (f4 f5 ?v1) ?v3)) f1)))))
(assert (forall ((?v0 S6) (?v1 S6) (?v2 S6) (?v3 S6)) (=> (= (f22 (f23 f34 ?v0) ?v1) f1) (=> (= (f22 (f23 f34 ?v2) ?v3) f1) (= (f22 (f23 f34 (f17 (f19 f20 ?v0) ?v2)) (f17 (f19 f20 ?v1) ?v3)) f1)))))
(assert (forall ((?v0 S3) (?v1 S3) (?v2 S3)) (=> (= (f11 (f12 f28 (f3 (f4 f5 ?v0) ?v1)) (f3 (f4 f5 ?v2) ?v1)) f1) (= (f11 (f12 f28 ?v0) ?v2) f1))))
(assert (forall ((?v0 S6) (?v1 S6) (?v2 S6)) (=> (= (f22 (f23 f34 (f17 (f19 f20 ?v0) ?v1)) (f17 (f19 f20 ?v2) ?v1)) f1) (= (f22 (f23 f34 ?v0) ?v2) f1))))
(assert (forall ((?v0 S3) (?v1 S3) (?v2 S3)) (let ((?v_0 (f4 f5 ?v0))) (=> (= (f11 (f12 f28 (f3 ?v_0 ?v1)) (f3 ?v_0 ?v2)) f1) (= (f11 (f12 f28 ?v1) ?v2) f1)))))
(assert (forall ((?v0 S6) (?v1 S6) (?v2 S6)) (let ((?v_0 (f19 f20 ?v0))) (=> (= (f22 (f23 f34 (f17 ?v_0 ?v1)) (f17 ?v_0 ?v2)) f1) (= (f22 (f23 f34 ?v1) ?v2) f1)))))
(assert (forall ((?v0 S6)) (=> (=> (= ?v0 f21) false) (= (f22 (f23 f24 f21) ?v0) f1))))
(assert (forall ((?v0 S6) (?v1 S6)) (=> (= (f22 (f23 f24 ?v0) ?v1) f1) (not (= ?v1 f21)))))
(assert (forall ((?v0 S6)) (= (= (f22 (f23 f24 ?v0) f21) f1) false)))
(assert (forall ((?v0 S6)) (= (not (= ?v0 f21)) (= (f22 (f23 f24 f21) ?v0) f1))))
(assert (forall ((?v0 S6)) (not (= (f22 (f23 f24 ?v0) f21) f1))))
(assert (forall ((?v0 S3) (?v1 S3)) (= (= (f11 (f12 f13 ?v0) ?v1) f1) (and (= (f11 (f12 f28 ?v0) ?v1) f1) (not (= ?v0 ?v1))))))
(assert (forall ((?v0 S6) (?v1 S6) (?v2 S6)) (=> (= (f22 (f23 f24 (f17 (f19 f20 ?v0) ?v1)) ?v2) f1) (= (f22 (f23 f24 ?v0) ?v2) f1))))
(assert (forall ((?v0 S6) (?v1 S6) (?v2 S6) (?v3 S6)) (=> (= (f22 (f23 f24 ?v0) ?v1) f1) (=> (= (f17 (f19 f20 ?v2) ?v1) (f17 (f19 f20 ?v0) ?v3)) (= (f22 (f23 f24 ?v2) ?v3) f1)))))
(assert (forall ((?v0 S6) (?v1 S6) (?v2 S6) (?v3 S6)) (=> (= (f22 (f23 f24 ?v0) ?v1) f1) (=> (= (f22 (f23 f24 ?v2) ?v3) f1) (= (f22 (f23 f24 (f17 (f19 f20 ?v0) ?v2)) (f17 (f19 f20 ?v1) ?v3)) f1)))))
(assert (forall ((?v0 S6) (?v1 S6) (?v2 S6)) (=> (= (f22 (f23 f24 ?v0) ?v1) f1) (= (f22 (f23 f24 (f17 (f19 f20 ?v0) ?v2)) (f17 (f19 f20 ?v1) ?v2)) f1))))
(assert (forall ((?v0 S6) (?v1 S6) (?v2 S6)) (let ((?v_0 (f23 f24 ?v0))) (=> (= (f22 ?v_0 ?v1) f1) (= (f22 ?v_0 (f17 (f19 f20 ?v2) ?v1)) f1)))))
(assert (forall ((?v0 S6) (?v1 S6) (?v2 S6)) (let ((?v_0 (f23 f24 ?v0))) (=> (= (f22 ?v_0 ?v1) f1) (= (f22 ?v_0 (f17 (f19 f20 ?v1) ?v2)) f1)))))
(assert (forall ((?v0 S6) (?v1 S6) (?v2 S6)) (let ((?v_0 (f19 f20 ?v0))) (= (= (f22 (f23 f24 (f17 ?v_0 ?v1)) (f17 ?v_0 ?v2)) f1) (= (f22 (f23 f24 ?v1) ?v2) f1)))))
(assert (forall ((?v0 S6) (?v1 S6)) (not (= (f22 (f23 f24 (f17 (f19 f20 ?v0) ?v1)) ?v1) f1))))
(assert (forall ((?v0 S6) (?v1 S6)) (not (= (f22 (f23 f24 (f17 (f19 f20 ?v0) ?v1)) ?v0) f1))))
(assert (forall ((?v0 S3) (?v1 S3) (?v2 S3)) (let ((?v_0 (f4 f5 ?v2))) (=> (= (f11 (f12 f28 ?v0) ?v1) f1) (= (f11 (f12 f28 (f3 ?v_0 ?v0)) (f3 ?v_0 ?v1)) f1)))))
(assert (= f21 (f31 f32 f10)))
(assert (= f16 (f31 f32 f6)))
(assert (= (f11 (f12 f28 f10) f6) f1))
(assert (forall ((?v0 S3) (?v1 S3)) (let ((?v_0 (f12 f28 f10))) (=> (= (f11 ?v_0 ?v0) f1) (=> (= (f11 ?v_0 ?v1) f1) (= (f11 ?v_0 (f3 (f4 f5 ?v0) ?v1)) f1))))))
(assert (forall ((?v0 S6)) (= (f11 (f12 f28 f10) (f7 f8 ?v0)) f1)))
(assert (forall ((?v0 S7)) (= (exists ((?v1 S3)) (and (= (f11 (f12 f28 f10) ?v1) f1) (= (f11 ?v0 ?v1) f1))) (exists ((?v1 S6)) (= (f11 ?v0 (f7 f8 ?v1)) f1)))))
(assert (forall ((?v0 S7)) (= (forall ((?v1 S3)) (=> (= (f11 (f12 f28 f10) ?v1) f1) (= (f11 ?v0 ?v1) f1))) (forall ((?v1 S6)) (= (f11 ?v0 (f7 f8 ?v1)) f1)))))
(assert (forall ((?v0 S6) (?v1 S6)) (= (= (f11 (f12 f13 (f7 f8 ?v0)) (f7 f8 ?v1)) f1) (= (f22 (f23 f24 ?v0) ?v1) f1))))
(assert (forall ((?v0 S3)) (= (= (f22 (f23 f24 f21) (f31 f32 ?v0)) f1) (= (f11 (f12 f13 f10) ?v0) f1))))
(assert (forall ((?v0 S6) (?v1 S3)) (= (= ?v0 (f31 f32 ?v1)) (ite (= (f11 (f12 f28 f10) ?v1) f1) (= ?v1 (f7 f8 ?v0)) (= ?v0 f21)))))
(assert (forall ((?v0 S3) (?v1 S6)) (= (= (f31 f32 ?v0) ?v1) (ite (= (f11 (f12 f28 f10) ?v0) f1) (= ?v0 (f7 f8 ?v1)) (= ?v1 f21)))))
(assert (forall ((?v0 S3) (?v1 S3)) (let ((?v_0 (f12 f28 f10))) (=> (= (f11 ?v_0 ?v0) f1) (=> (= (f11 ?v_0 ?v1) f1) (= (f31 f32 (f3 (f4 f5 ?v0) ?v1)) (f17 (f19 f20 (f31 f32 ?v0)) (f31 f32 ?v1))))))))
(assert (= (f25 (f26 f27 f10) f30) f1))
(assert (forall ((?v0 S3) (?v1 S3)) (=> (= (f25 (f26 f27 ?v0) f30) f1) (=> (= (f25 (f26 f27 ?v1) f30) f1) (= (f25 (f26 f27 (f3 (f4 f5 ?v0) ?v1)) f30) f1)))))
(assert (= (f25 (f26 f27 f6) f30) f1))
(assert (forall ((?v0 S6)) (= (f25 (f26 f27 (f7 f8 ?v0)) f30) f1)))
(assert (= (f31 f32 f10) f21))
(assert (forall ((?v0 S3)) (let ((?v_0 (f12 f28 f10))) (= (= (f11 ?v_0 (f3 (f4 f5 ?v0) ?v0)) f1) (= (f11 ?v_0 ?v0) f1)))))
(assert (forall ((?v0 S3)) (= (= (f11 (f12 f28 (f3 (f4 f5 ?v0) ?v0)) f10) f1) (= (f11 (f12 f28 ?v0) f10) f1))))
(assert (forall ((?v0 S3) (?v1 S3)) (let ((?v_0 (f12 f28 f10))) (=> (= (f11 ?v_0 ?v0) f1) (=> (= (f11 ?v_0 ?v1) f1) (= (f11 ?v_0 (f3 (f4 f5 ?v0) ?v1)) f1))))))
(assert (forall ((?v0 S6) (?v1 S6)) (let ((?v_0 (f23 f34 f21))) (=> (= (f22 ?v_0 ?v0) f1) (=> (= (f22 ?v_0 ?v1) f1) (= (f22 ?v_0 (f17 (f19 f20 ?v0) ?v1)) f1))))))
(assert (forall ((?v0 S3) (?v1 S3)) (let ((?v_0 (f12 f28 f10))) (=> (= (f11 ?v_0 ?v0) f1) (=> (= (f11 ?v_0 ?v1) f1) (= (= (f3 (f4 f5 ?v0) ?v1) f10) (and (= ?v0 f10) (= ?v1 f10))))))))
(assert (forall ((?v0 S6) (?v1 S6)) (let ((?v_0 (f23 f34 f21))) (=> (= (f22 ?v_0 ?v0) f1) (=> (= (f22 ?v_0 ?v1) f1) (= (= (f17 (f19 f20 ?v0) ?v1) f21) (and (= ?v0 f21) (= ?v1 f21))))))))
(assert (forall ((?v0 S3) (?v1 S3) (?v2 S3)) (let ((?v_0 (f12 f28 ?v1))) (=> (= (f11 (f12 f28 f10) ?v0) f1) (=> (= (f11 ?v_0 ?v2) f1) (= (f11 ?v_0 (f3 (f4 f5 ?v0) ?v2)) f1))))))
(assert (forall ((?v0 S6) (?v1 S6) (?v2 S6)) (let ((?v_0 (f23 f34 ?v1))) (=> (= (f22 (f23 f34 f21) ?v0) f1) (=> (= (f22 ?v_0 ?v2) f1) (= (f22 ?v_0 (f17 (f19 f20 ?v0) ?v2)) f1))))))
(assert (forall ((?v0 S3) (?v1 S3) (?v2 S3)) (let ((?v_0 (f12 f28 ?v1))) (=> (= (f11 (f12 f28 f10) ?v0) f1) (=> (= (f11 ?v_0 ?v2) f1) (= (f11 ?v_0 (f3 (f4 f5 ?v2) ?v0)) f1))))))
(assert (forall ((?v0 S6) (?v1 S6) (?v2 S6)) (let ((?v_0 (f23 f34 ?v1))) (=> (= (f22 (f23 f34 f21) ?v0) f1) (=> (= (f22 ?v_0 ?v2) f1) (= (f22 ?v_0 (f17 (f19 f20 ?v2) ?v0)) f1))))))
(assert (forall ((?v0 S3) (?v1 S3)) (=> (= (f11 (f12 f28 ?v0) f10) f1) (=> (= (f11 (f12 f28 ?v1) f10) f1) (= (f11 (f12 f28 (f3 (f4 f5 ?v0) ?v1)) f10) f1)))))
(assert (forall ((?v0 S6) (?v1 S6)) (=> (= (f22 (f23 f34 ?v0) f21) f1) (=> (= (f22 (f23 f34 ?v1) f21) f1) (= (f22 (f23 f34 (f17 (f19 f20 ?v0) ?v1)) f21) f1)))))
(assert (not (= (f11 (f12 f28 f6) f10) f1)))
(assert (not (= (f22 (f23 f34 f16) f21) f1)))
(assert (= (f11 (f12 f28 f10) f6) f1))
(assert (= (f22 (f23 f34 f21) f16) f1))
(assert (forall ((?v0 S3) (?v1 S3) (?v2 S3) (?v3 S3)) (=> (= (f11 (f12 f13 ?v0) ?v1) f1) (=> (= (f11 (f12 f28 ?v2) ?v3) f1) (= (f11 (f12 f13 (f3 (f4 f5 ?v0) ?v2)) (f3 (f4 f5 ?v1) ?v3)) f1)))))
(assert (forall ((?v0 S6) (?v1 S6) (?v2 S6) (?v3 S6)) (=> (= (f22 (f23 f24 ?v0) ?v1) f1) (=> (= (f22 (f23 f34 ?v2) ?v3) f1) (= (f22 (f23 f24 (f17 (f19 f20 ?v0) ?v2)) (f17 (f19 f20 ?v1) ?v3)) f1)))))
(assert (forall ((?v0 S3) (?v1 S3) (?v2 S3) (?v3 S3)) (=> (= (f11 (f12 f28 ?v0) ?v1) f1) (=> (= (f11 (f12 f13 ?v2) ?v3) f1) (= (f11 (f12 f13 (f3 (f4 f5 ?v0) ?v2)) (f3 (f4 f5 ?v1) ?v3)) f1)))))
(assert (forall ((?v0 S6) (?v1 S6) (?v2 S6) (?v3 S6)) (=> (= (f22 (f23 f34 ?v0) ?v1) f1) (=> (= (f22 (f23 f24 ?v2) ?v3) f1) (= (f22 (f23 f24 (f17 (f19 f20 ?v0) ?v2)) (f17 (f19 f20 ?v1) ?v3)) f1)))))
(assert (forall ((?v0 S6)) (= (f11 (f12 f28 f10) (f7 f8 ?v0)) f1)))
(assert (forall ((?v0 S6)) (= (f22 (f23 f34 f21) (f17 f18 ?v0)) f1)))
(assert (forall ((?v0 S6)) (= (f11 (f12 f28 f10) (f7 f8 ?v0)) f1)))
(assert (forall ((?v0 S6)) (= (f22 (f23 f34 f21) (f17 f18 ?v0)) f1)))
(assert (forall ((?v0 S6) (?v1 S6)) (let ((?v_0 (f23 f24 f21))) (= (= (f22 ?v_0 (f17 (f19 f20 ?v0) ?v1)) f1) (or (= (f22 ?v_0 ?v0) f1) (= (f22 ?v_0 ?v1) f1))))))
(assert (forall ((?v0 S3) (?v1 S3) (?v2 S3) (?v3 S3)) (=> (= (f11 (f12 f13 ?v0) ?v1) f1) (=> (= (f11 (f12 f28 ?v2) ?v3) f1) (= (f11 (f12 f13 (f3 (f4 f5 ?v0) ?v2)) (f3 (f4 f5 ?v1) ?v3)) f1)))))
(assert (forall ((?v0 S6)) (= (f11 (f12 f28 f10) (f7 f8 ?v0)) f1)))
(assert (forall ((?v0 S6) (?v1 S6)) (= (= (f11 (f12 f13 (f7 f8 ?v0)) (f7 f8 ?v1)) f1) (= (f22 (f23 f24 ?v0) ?v1) f1))))
(assert (forall ((?v0 S3) (?v1 S3)) (= (= (f11 (f12 f28 ?v0) ?v1) f1) (exists ((?v2 S6)) (= ?v1 (f3 (f4 f5 ?v0) (f7 f8 ?v2)))))))
(assert (forall ((?v0 S3)) (=> (= (f25 (f26 f27 ?v0) f30) f1) (= (= (f3 (f4 f5 ?v0) ?v0) f10) (= ?v0 f10)))))
(assert (forall ((?v0 S3) (?v1 S3)) (let ((?v_0 (f12 f13 f10))) (=> (= (f11 ?v_0 ?v0) f1) (=> (= (f11 (f12 f28 f10) ?v1) f1) (= (f11 ?v_0 (f3 (f4 f5 ?v0) ?v1)) f1))))))
(assert (forall ((?v0 S6) (?v1 S6)) (let ((?v_0 (f23 f24 f21))) (=> (= (f22 ?v_0 ?v0) f1) (=> (= (f22 (f23 f34 f21) ?v1) f1) (= (f22 ?v_0 (f17 (f19 f20 ?v0) ?v1)) f1))))))
(assert (forall ((?v0 S3) (?v1 S3)) (let ((?v_0 (f12 f13 f10))) (=> (= (f11 (f12 f28 f10) ?v0) f1) (=> (= (f11 ?v_0 ?v1) f1) (= (f11 ?v_0 (f3 (f4 f5 ?v0) ?v1)) f1))))))
(assert (forall ((?v0 S6) (?v1 S6)) (let ((?v_0 (f23 f24 f21))) (=> (= (f22 (f23 f34 f21) ?v0) f1) (=> (= (f22 ?v_0 ?v1) f1) (= (f22 ?v_0 (f17 (f19 f20 ?v0) ?v1)) f1))))))
(assert (forall ((?v0 S3) (?v1 S3) (?v2 S3)) (=> (= (f11 (f12 f13 f10) ?v0) f1) (=> (= (f11 (f12 f28 ?v1) ?v2) f1) (= (f11 (f12 f13 ?v1) (f3 (f4 f5 ?v0) ?v2)) f1)))))
(assert (forall ((?v0 S6) (?v1 S6) (?v2 S6)) (=> (= (f22 (f23 f24 f21) ?v0) f1) (=> (= (f22 (f23 f34 ?v1) ?v2) f1) (= (f22 (f23 f24 ?v1) (f17 (f19 f20 ?v0) ?v2)) f1)))))
(assert (forall ((?v0 S3) (?v1 S3) (?v2 S3)) (let ((?v_0 (f12 f13 ?v1))) (=> (= (f11 (f12 f28 f10) ?v0) f1) (=> (= (f11 ?v_0 ?v2) f1) (= (f11 ?v_0 (f3 (f4 f5 ?v0) ?v2)) f1))))))
(assert (forall ((?v0 S6) (?v1 S6) (?v2 S6)) (let ((?v_0 (f23 f24 ?v1))) (=> (= (f22 (f23 f34 f21) ?v0) f1) (=> (= (f22 ?v_0 ?v2) f1) (= (f22 ?v_0 (f17 (f19 f20 ?v0) ?v2)) f1))))))
(assert (forall ((?v0 S3) (?v1 S3)) (=> (= (f11 (f12 f13 ?v0) f10) f1) (=> (= (f11 (f12 f28 ?v1) f10) f1) (= (f11 (f12 f13 (f3 (f4 f5 ?v0) ?v1)) f10) f1)))))
(assert (forall ((?v0 S6) (?v1 S6)) (=> (= (f22 (f23 f24 ?v0) f21) f1) (=> (= (f22 (f23 f34 ?v1) f21) f1) (= (f22 (f23 f24 (f17 (f19 f20 ?v0) ?v1)) f21) f1)))))
(assert (forall ((?v0 S3) (?v1 S3)) (=> (= (f11 (f12 f28 ?v0) f10) f1) (=> (= (f11 (f12 f13 ?v1) f10) f1) (= (f11 (f12 f13 (f3 (f4 f5 ?v0) ?v1)) f10) f1)))))
(assert (forall ((?v0 S6) (?v1 S6)) (=> (= (f22 (f23 f34 ?v0) f21) f1) (=> (= (f22 (f23 f24 ?v1) f21) f1) (= (f22 (f23 f24 (f17 (f19 f20 ?v0) ?v1)) f21) f1)))))
(assert (forall ((?v0 S3)) (= (= (f11 (f12 f28 f6) ?v0) f1) (= (f11 (f12 f13 f10) ?v0) f1))))
(assert (forall ((?v0 S6)) (= (= (f11 (f12 f28 (f7 f8 ?v0)) f10) f1) (= ?v0 f21))))
(assert (forall ((?v0 S3) (?v1 S3)) (= (= (f11 (f12 f13 ?v0) (f3 (f4 f5 ?v1) f6)) f1) (= (f11 (f12 f28 ?v0) ?v1) f1))))
(assert (forall ((?v0 S3) (?v1 S3)) (= (= (f11 (f12 f28 (f3 (f4 f5 ?v0) f6)) ?v1) f1) (= (f11 (f12 f13 ?v0) ?v1) f1))))
(assert (forall ((?v0 S3) (?v1 S3)) (=> (= (f11 (f12 f13 ?v0) ?v1) f1) (= (f11 (f12 f28 (f3 (f4 f5 ?v0) f6)) ?v1) f1))))
(assert (forall ((?v0 S6) (?v1 S6)) (= (= (f7 f8 ?v0) (f7 f8 ?v1)) (= ?v0 ?v1))))
(assert (forall ((?v0 S1) (?v1 S6) (?v2 S6)) (let ((?v_0 (= ?v0 f1))) (= (ite ?v_0 (f7 f8 ?v1) (f7 f8 ?v2)) (f7 f8 (ite ?v_0 ?v1 ?v2))))))
(assert (forall ((?v0 S3)) (=> (= (f11 (f12 f13 f10) ?v0) f1) (exists ((?v1 S6)) (and (= (f22 (f23 f24 f21) ?v1) f1) (= ?v0 (f7 f8 ?v1)))))))
(assert (forall ((?v0 S3) (?v1 S6)) (= (f17 (f35 f36 ?v0) ?v1) (f17 (f19 f20 (f31 f32 ?v0)) ?v1))))
(assert (forall ((?v0 S3)) (=> (= (f11 (f12 f28 f10) ?v0) f1) (exists ((?v1 S6)) (= ?v0 (f7 f8 ?v1))))))
(assert (forall ((?v0 S3)) (=> (= (f11 (f12 f28 f10) ?v0) f1) (=> (forall ((?v1 S6)) (=> (= ?v0 (f7 f8 ?v1)) false)) false))))
(assert (forall ((?v0 S3) (?v1 S3) (?v2 S7)) (=> (= (f11 (f12 f28 ?v0) ?v1) f1) (=> (= (f11 ?v2 ?v0) f1) (=> (forall ((?v3 S3)) (=> (= (f11 (f12 f28 ?v0) ?v3) f1) (=> (= (f11 ?v2 ?v3) f1) (= (f11 ?v2 (f3 (f4 f5 ?v3) f6)) f1)))) (= (f11 ?v2 ?v1) f1))))))
(assert (forall ((?v0 S6)) (= (f22 (f23 f34 f21) ?v0) f1)))
(assert (=> (forall ((?v0 S6)) (=> (= ?v0 (f17 (f19 f33 (f31 f32 f14)) f16)) (=> (= (f22 (f23 f24 f21) ?v0) f1) false))) false))
(assert (forall ((?v0 S6)) (= (f22 (f23 f34 ?v0) ?v0) f1)))
(assert (forall ((?v0 S6) (?v1 S6)) (= (f22 (f23 f34 (f17 (f19 f33 ?v0) ?v1)) ?v0) f1)))
(assert (forall ((?v0 S6) (?v1 S6)) (or (= (f22 (f23 f34 ?v0) ?v1) f1) (= (f22 (f23 f34 ?v1) ?v0) f1))))
(assert (forall ((?v0 S6) (?v1 S6)) (=> (= ?v0 ?v1) (= (f22 (f23 f34 ?v0) ?v1) f1))))
(assert (forall ((?v0 S6) (?v1 S6)) (=> (= (f22 (f23 f34 ?v0) ?v1) f1) (= (f7 f8 (f17 (f19 f33 ?v1) ?v0)) (f3 (f4 f37 (f7 f8 ?v1)) (f7 f8 ?v0))))))
(assert (forall ((?v0 S6) (?v1 S6) (?v2 S6)) (=> (= (f22 (f23 f24 ?v0) ?v1) f1) (= (f22 (f23 f24 (f17 (f19 f33 ?v0) ?v2)) ?v1) f1))))
(assert (forall ((?v0 S6) (?v1 S6) (?v2 S6)) (let ((?v_0 (f19 f33 ?v2))) (=> (= (f22 (f23 f34 ?v0) ?v1) f1) (= (f22 (f23 f34 (f17 ?v_0 ?v1)) (f17 ?v_0 ?v0)) f1)))))
(assert (forall ((?v0 S6) (?v1 S6) (?v2 S6)) (=> (= (f22 (f23 f34 ?v0) ?v1) f1) (= (f22 (f23 f34 (f17 (f19 f33 ?v0) ?v2)) (f17 (f19 f33 ?v1) ?v2)) f1))))
(assert (forall ((?v0 S6) (?v1 S6)) (let ((?v_0 (f19 f33 ?v1))) (=> (= (f22 (f23 f34 ?v0) ?v1) f1) (= (f17 ?v_0 (f17 ?v_0 ?v0)) ?v0)))))
(assert (forall ((?v0 S6) (?v1 S6) (?v2 S6)) (let ((?v_0 (f23 f34 ?v0))) (=> (= (f22 ?v_0 ?v1) f1) (=> (= (f22 (f23 f34 ?v1) ?v2) f1) (= (f22 ?v_0 ?v2) f1))))))
(assert (forall ((?v0 S6) (?v1 S6)) (=> (= (f22 (f23 f34 ?v0) ?v1) f1) (=> (= (f22 (f23 f34 ?v1) ?v0) f1) (= ?v0 ?v1)))))
(assert (forall ((?v0 S6) (?v1 S6) (?v2 S6)) (=> (= (f22 (f23 f24 ?v0) ?v1) f1) (=> (= (f22 (f23 f34 ?v2) ?v0) f1) (= (f22 (f23 f24 (f17 (f19 f33 ?v0) ?v2)) (f17 (f19 f33 ?v1) ?v2)) f1)))))
(assert (forall ((?v0 S6) (?v1 S6) (?v2 S6)) (let ((?v_0 (f23 f24 ?v0)) (?v_1 (f19 f33 ?v2))) (=> (= (f22 ?v_0 ?v1) f1) (=> (= (f22 ?v_0 ?v2) f1) (= (f22 (f23 f24 (f17 ?v_1 ?v1)) (f17 ?v_1 ?v0)) f1))))))
(assert (forall ((?v0 S6) (?v1 S6) (?v2 S6)) (let ((?v_0 (f23 f34 ?v0))) (=> (= (f22 ?v_0 ?v1) f1) (=> (= (f22 ?v_0 ?v2) f1) (= (= (f17 (f19 f33 ?v1) ?v0) (f17 (f19 f33 ?v2) ?v0)) (= ?v1 ?v2)))))))
(assert (forall ((?v0 S6) (?v1 S6) (?v2 S6)) (let ((?v_0 (f23 f34 ?v0)) (?v_1 (f19 f33 ?v1))) (=> (= (f22 ?v_0 ?v1) f1) (=> (= (f22 ?v_0 ?v2) f1) (= (f17 (f19 f33 (f17 ?v_1 ?v0)) (f17 (f19 f33 ?v2) ?v0)) (f17 ?v_1 ?v2)))))))
(assert (forall ((?v0 S6) (?v1 S6) (?v2 S6)) (let ((?v_0 (f23 f34 ?v0))) (=> (= (f22 ?v_0 ?v1) f1) (=> (= (f22 ?v_0 ?v2) f1) (= (= (f22 (f23 f24 (f17 (f19 f33 ?v1) ?v0)) (f17 (f19 f33 ?v2) ?v0)) f1) (= (f22 (f23 f24 ?v1) ?v2) f1)))))))
(assert (forall ((?v0 S6) (?v1 S6) (?v2 S6)) (let ((?v_0 (f23 f34 ?v0))) (=> (= (f22 ?v_0 ?v1) f1) (=> (= (f22 ?v_0 ?v2) f1) (= (= (f22 (f23 f34 (f17 (f19 f33 ?v1) ?v0)) (f17 (f19 f33 ?v2) ?v0)) f1) (= (f22 (f23 f34 ?v1) ?v2) f1)))))))
(assert (forall ((?v0 S3) (?v1 S3) (?v2 S3) (?v3 S3)) (=> (= (f3 (f4 f37 ?v0) ?v1) (f3 (f4 f37 ?v2) ?v3)) (= (= (f11 (f12 f28 ?v0) ?v1) f1) (= (f11 (f12 f28 ?v2) ?v3) f1)))))
(assert (forall ((?v0 S6) (?v1 S6)) (=> (= (f22 (f23 f34 ?v0) ?v1) f1) (= (f17 (f19 f33 ?v0) ?v1) f21))))
(assert (forall ((?v0 S6) (?v1 S6)) (= (= (f17 (f19 f33 ?v0) ?v1) f21) (= (f22 (f23 f34 ?v0) ?v1) f1))))
(assert (forall ((?v0 S6) (?v1 S6) (?v2 S6)) (=> (= (f22 (f23 f34 ?v0) ?v1) f1) (= (f17 (f19 f33 (f17 (f19 f20 ?v1) ?v2)) ?v0) (f17 (f19 f20 (f17 (f19 f33 ?v1) ?v0)) ?v2)))))
(assert (forall ((?v0 S6) (?v1 S6) (?v2 S6)) (=> (= (f22 (f23 f34 ?v0) ?v1) f1) (= (f17 (f19 f20 (f17 (f19 f33 ?v1) ?v0)) ?v2) (f17 (f19 f33 (f17 (f19 f20 ?v1) ?v2)) ?v0)))))
(assert (forall ((?v0 S6) (?v1 S6) (?v2 S6)) (let ((?v_0 (f19 f20 ?v2))) (=> (= (f22 (f23 f34 ?v0) ?v1) f1) (= (f17 (f19 f33 (f17 ?v_0 ?v1)) ?v0) (f17 ?v_0 (f17 (f19 f33 ?v1) ?v0)))))))
(assert (forall ((?v0 S6) (?v1 S6) (?v2 S6)) (=> (= (f22 (f23 f34 ?v0) ?v1) f1) (= (= (f17 (f19 f33 ?v1) ?v0) ?v2) (= ?v1 (f17 (f19 f20 ?v2) ?v0))))))
(assert (forall ((?v0 S6) (?v1 S6)) (=> (= (f22 (f23 f34 ?v0) ?v1) f1) (= (f17 (f19 f20 (f17 (f19 f33 ?v1) ?v0)) ?v0) ?v1))))
(assert (forall ((?v0 S6) (?v1 S6) (?v2 S6)) (=> (= (f22 (f23 f34 ?v0) ?v1) f1) (= (= (f22 (f23 f34 ?v2) (f17 (f19 f33 ?v1) ?v0)) f1) (= (f22 (f23 f34 (f17 (f19 f20 ?v2) ?v0)) ?v1) f1)))))
(assert (forall ((?v0 S6) (?v1 S6) (?v2 S6)) (let ((?v_0 (f19 f20 ?v2))) (=> (= (f22 (f23 f34 ?v0) ?v1) f1) (= (f17 ?v_0 (f17 (f19 f33 ?v1) ?v0)) (f17 (f19 f33 (f17 ?v_0 ?v1)) ?v0))))))
(assert (forall ((?v0 S6) (?v1 S6)) (=> (= (f22 (f23 f34 ?v0) ?v1) f1) (= (f17 (f19 f20 ?v0) (f17 (f19 f33 ?v1) ?v0)) ?v1))))
(assert (forall ((?v0 S6) (?v1 S6) (?v2 S6)) (=> (= (f22 (f23 f34 ?v0) ?v1) f1) (= (f22 (f23 f34 ?v2) (f17 (f19 f33 (f17 (f19 f20 ?v1) ?v2)) ?v0)) f1))))
(assert (forall ((?v0 S6) (?v1 S6) (?v2 S6)) (= (= (f22 (f23 f34 (f17 (f19 f33 ?v0) ?v1)) ?v2) f1) (= (f22 (f23 f34 ?v0) (f17 (f19 f20 ?v2) ?v1)) f1))))
(assert (forall ((?v0 S6) (?v1 S6) (?v2 S6)) (=> (= (f22 (f23 f34 ?v0) ?v1) f1) (= (f17 (f19 f33 ?v2) (f17 (f19 f33 ?v1) ?v0)) (f17 (f19 f33 (f17 (f19 f20 ?v2) ?v0)) ?v1)))))
(assert (forall ((?v0 S3)) (= (f3 (f4 f37 ?v0) f10) ?v0)))
(assert (forall ((?v0 S3)) (= (f3 (f4 f37 ?v0) ?v0) f10)))
(assert (forall ((?v0 S3) (?v1 S3)) (= (= ?v0 ?v1) (= (f3 (f4 f37 ?v0) ?v1) f10))))
(assert (forall ((?v0 S3) (?v1 S3)) (= (= (f3 (f4 f37 ?v0) ?v1) f10) (= ?v0 ?v1))))
(assert (forall ((?v0 S3) (?v1 S3) (?v2 S3) (?v3 S3)) (=> (= (f3 (f4 f37 ?v0) ?v1) (f3 (f4 f37 ?v2) ?v3)) (= (= (f11 (f12 f13 ?v0) ?v1) f1) (= (f11 (f12 f13 ?v2) ?v3) f1)))))
(assert (forall ((?v0 S3) (?v1 S3)) (= (f3 (f4 f5 (f3 (f4 f37 ?v0) ?v1)) ?v1) ?v0)))
(assert (forall ((?v0 S3) (?v1 S3)) (= (f3 (f4 f37 (f3 (f4 f5 ?v0) ?v1)) ?v1) ?v0)))
(assert (forall ((?v0 S6) (?v1 S6)) (=> (= (f17 (f19 f33 ?v0) ?v1) f21) (=> (= (f17 (f19 f33 ?v1) ?v0) f21) (= ?v0 ?v1)))))
(assert (forall ((?v0 S6)) (= (f17 (f19 f33 ?v0) ?v0) f21)))
(assert (forall ((?v0 S6)) (= (f17 (f19 f33 ?v0) f21) ?v0)))
(assert (forall ((?v0 S6)) (= (f17 (f19 f33 f21) ?v0) f21)))
(check-sat)
(exit)
